NAME : Unnamed.949497.tour
COMMENT : Length = 949497
COMMENT : Found by LKH [Keld Helsgaun] Thu Sep 10 15:59:58 2015
TYPE : TOUR
DIMENSION : 50
TOUR_SECTION
1
7
6
11
12
18
19
20
24
28
29
25
5
50
48
47
4
46
45
49
2
16
17
23
27
31
30
26
22
21
15
10
9
14
13
8
3
36
42
41
35
34
40
39
33
32
38
44
43
37
-1
EOF
